
[SetEffect_Set]	set_index	glove	boots	suit	helmet	2set	3set	4set
1	1	2975	2993	2957	3011	0	0	1 
2	2	2976	2994	2958	3012	0	0	1
3	3	2981	2999	2963	3017	0	0	1 
4	4	2744	2750	2738	2756	0	0	2 
5	5	2748	2754	2742	2760	0	0	2
6	6	2749	2755	2743	2761	0	0	2
7	7	2747	2753	2741	2759	0	0	2
8	8	2745	2751	2739	2757	0	0	2
9	9	2746	2752	2740	2758	0	0	2 
10	10	1320	1326	1314	1332	0	0	3 
11	11	1324	1330	1318	1336	0	0	3
12	12	1325	1331	1319	1337	0	0	3
13	13	1323	1329	1317	1335	0	0	3
14	14	1321	1327	1315	1333	0	0	3
15	15	1322	1328	1316	1334	0	0	3 
16	16	2792	2798	2786	2804	0	0	4 
17	17	2796	2802	2790	2808	0	0	4
18	18	2797	2803	2791	2809	0	0	4
19	19	2795	2801	2789	2807	0	0	4
20	20	2793	2799	2787	2805	0	0	4
21	21	2794	2800	2788	2806	0	0	4 
22	22	158	203	113	248	0	0	5 
23	23	188	233	143	278	0	0	5 
24	24	189	234	144	279	0	0	5 
25	25	174	219	129	264	0	0	5 
26	26	159	204	114	249	0	0	5 
27	27	173	218	128	263	0	0	5 
28	28	1639	1645	1633	1651	0	0	6 
29	29	1643	1649	1637	1655	0	0	6
30	30	1644	1650	1638	1656	0	0	6
31	31	1642	1648	1636	1654	0	0	6
32	32	1640	1646	1634	1652	0	0	6
33	33	1641	1647	1635	1653	0	0	6 
34	34	160	205	115	250	0	0	7 
35	35	190	235	145	280	0	0	7
36	36	191	236	146	281	0	0	7
37	37	176	221	131	266	0	0	7
38	38	161	206	116	251	0	0	7
39	39	175	220	130	265	0	0	7 
40	40	3579	3585	3573	3591	0	0	8 
41	41	3583	3589	3577	3595	0	0	8
42	42	3584	3590	3578	3596	0	0	8
43	43	3582	3588	3576	3594	0	0	8
44	44	3580	3586	3574	3592	0	0	8
45	45	3581	3587	3575	3593	0	0	8 
46	46	3699	3705	3693	3711	0	0	9 
47	47	3703	3709	3697	3715	0	0	9
48	48	3704	3710	3698	3716	0	0	9
49	49	3702	3708	3696	3714	0	0	9
50	50	3700	3706	3694	3712	0	0	9
51	51	3701	3707	3695	3713	0	0	9 
52	52	162	207	117	252	0	0	10 
53	53	163	208	118	253	0	0	10
54	54	177	222	132	267	0	0	10
55	55	178	223	133	268	0	0	10
56	56	192	237	147	282	0	0	10
57	57	193	238	148	283	0	0	10 
58	58	3373	3379	3367	3385	0	0	26 
59	59	3374	3380	3368	3386	0	0	26 
60	60	3375	3381	3369	3387	0	0	26 
61	61	3376	3382	3370	3388	0	0	26 
62	62	3377	3383	3371	3389	0	0	26 
63	63	3378	3384	3372	3390	0	0	26 
64	64	152	197	107	242	0	0	30 
65	65	153	198	108	243	0	0	30 
66	66	167	212	122	257	0	0	30 
67	67	168	213	123	258	0	0	30 
68	68	182	227	137	272	0	0	30 
69	69	183	228	138	273	0	0	30 

[SetEffect_epaulet]	epaulet	set_index	2set	3set	4set
0	2734	40	0	0	11 
1	2734	41	0	0	11
2	2734	42	0	0	11
3	2734	43	0	0	11
4	2734	44	0	0	11
5	2734	45	0	0	11
6	2735	40	0	0	12 
7	2735	41	0	0	12
8	2735	42	0	0	12
9	2735	43	0	0	12
10	2735	44	0	0	12
11	2735	45	0	0	12
12	2736	40	0	0	13 
13	2736	41	0	0	13
14	2736	42	0	0	13
15	2736	43	0	0	13
16	2736	44	0	0	13
17	2736	45	0	0	13
18	1208	34	0	0	14  
19	1208	35	0	0	14
20	1208	36	0	0	14
21	1208	37	0	0	14
22	1208	38	0	0	14
23	1208	39	0	0	14
24	1209	34	0	0	15 
25	1209	35	0	0	15
26	1209	36	0	0	15
27	1209	37	0	0	15
28	1209	38	0	0	15
29	1209	39	0	0	15
30	1210	34	0	0	16 
31	1210	35	0	0	16
32	1210	36	0	0	16
33	1210	37	0	0	16
34	1210	38	0	0	16
35	1210	39	0	0	16
36	3359	52	0	0	17  
37	3359	53	0	0	17
38	3359	54	0	0	17
39	3359	55	0	0	17
40	3359	56	0	0	17
41	3359	57	0	0	17
42	3360	52	0	0	18 
43	3360	53	0	0	18
44	3360	54	0	0	18
45	3360	55	0	0	18
46	3360	56	0	0	18
47	3360	57	0	0	18
48	3361	52	0	0	19 
49	3361	53	0	0	19
50	3361	54	0	0	19
51	3361	55	0	0	19
52	3361	56	0	0	19
53	3361	57	0	0	19
54	3717	46	0	0	20  
55	3717	47	0	0	20
56	3717	48	0	0	20
57	3717	49	0	0	20
58	3717	50	0	0	20
59	3717	51	0	0	20
60	3718	46	0	0	21 
61	3718	47	0	0	21
62	3718	48	0	0	21
63	3718	49	0	0	21
64	3718	50	0	0	21
65	3718	51	0	0	21
66	3719	46	0	0	22 
67	3719	47	0	0	22
68	3719	48	0	0	22
69	3719	49	0	0	22
70	3719	50	0	0	22
71	3719	51	0	0	22
72	1338	10	0	0	23 
73	1338	11	0	0	23
74	1338	12	0	0	23
75	1338	13	0	0	23
76	1338	14	0	0	23
77	1338	15	0	0	23
78	1339	10	0	0	24 
79	1339	11	0	0	24
80	1339	12	0	0	24
81	1339	13	0	0	24
82	1339	14	0	0	24
83	1339	15	0	0	24
84	1340	10	0	0	25 
85	1340	11	0	0	25
86	1340	12	0	0	25
87	1340	13	0	0	25
88	1340	14	0	0	25
89	1340	15	0	0	25
90	3356	58	0	0	27 
91	3356	59	0	0	27
92	3356	60	0	0	27
93	3356	61	0	0	27
94	3356	62	0	0	27
95	3356	63	0	0	27
96	3357	58	0	0	28 
97	3357	59	0	0	28
98	3357	60	0	0	28
99	3357	61	0	0	28
100	3357	62	0	0	28
101	3357	63	0	0	28
102	3358	58	0	0	29 
103	3358	59	0	0	29
104	3358	60	0	0	29
105	3358	61	0	0	29
106	3358	62	0	0	29
107	3358	63	0	0	29
36	1578	52	0	0	17  
37	1578	53	0	0	17
38	1578	54	0	0	17
39	1578	55	0	0	17
40	1578	56	0	0	17
41	1578	57	0	0	17
42	1579	52	0	0	18 
43	1579	53	0	0	18
44	1579	54	0	0	18
45	1579	55	0	0	18
46	1579	56	0	0	18
47	1579	57	0	0	18
48	1580	52	0	0	19 
49	1580	53	0	0	19
50	1580	54	0	0	19
51	1580	55	0	0	19
52	1580	56	0	0	19
53	1580	57	0	0	19
72	1585	10	0	0	23 
73	1585	11	0	0	23
74	1585	12	0	0	23
75	1585	13	0	0	23
76	1585	14	0	0	23
77	1585	15	0	0	23
78	1586	10	0	0	24 
79	1586	11	0	0	24
80	1586	12	0	0	24
81	1586	13	0	0	24
82	1586	14	0	0	24
83	1586	15	0	0	24
84	1587	10	0	0	25 
85	1587	11	0	0	25
86	1587	12	0	0	25
87	1587	13	0	0	25
88	1587	14	0	0	25
89	1587	15	0	0	25
90	412	64	0	0	31 
91	412	65	0	0	31
92	412	66	0	0	31
93	412	67	0	0	31
94	412	68	0	0	31
95	412	69	0	0	31
96	761	64	0	0	32 
97	761	65	0	0	32
98	761	66	0	0	32
99	761	67	0	0	32
100	761	68	0	0	32
101	761	69	0	0	32
102	762	64	0	0	33 
103	762	65	0	0	33
104	762	66	0	0	33
105	762	67	0	0	33
106	762	68	0	0	33
107	762	69	0	0	33

[SetEffect_option]	option_id	order	force_id	force_value	value_type
1	4	0	1	250	1
2	4	1	112	3	2
3	4	2	8	3	2
4	4	3	9	2	2
5	4	4	30	1	2
6	4	5	32	1	2
7	5	0	1	500	1
8	5	1	112	5	2
9	5	2	8	5	2
10	5	3	9	3	2
11	5	4	30	2	2
12	5	5	32	2	2
13	6	0	1	750	1
14	6	1	112	8	2
15	6	2	8	8	2
16	6	3	9	5	2
17	6	4	30	3	2
18	6	5	32	3	2
19	7	0	1	1000	1
20	7	1	112	10	2
21	7	2	8	7	2
22	7	3	9	7	2
23	7	4	30	4	2
24	7	5	32	4	2
25	10	0	1	500	1
26	10	1	5	600	1
27	10	2	29	10	2
28	10	3	39	100	1
29	10	4	113	205	1
30	10	5	25	8	1
31	10	6	12	220	1
32	10	7	34	8	1
33	10	8	112	90	2
34	10	9	97	30	2
35	10	10	98	200	2
36	9	0	1	1500	1
37	9	1	112	14	2
38	9	2	8	10	2
39	9	3	9	9	2
40	9	4	30	7	2
41	9	5	32	7	2
42	9	6	97	20	2
43	9	7	98	100	2
44	3	0	1	700	1
45	3	1	5	700	1
46	3	2	29	14	2
47	3	3	39	150	1
48	3	4	113	305	1
49	3	5	25	10	1
50	3	6	12	320	1
51	3	7	34	10	1
52	3	8	112	100	2
53	3	9	97	40	2
54	3	10	98	250	2
55	8	0	1	2500	1
56	8	1	5	250	1
57	8	2	112	25	2
58	8	3	8	14	2
59	8	4	25	5	2
60	8	5	30	12	2
61	8	6	32	12	2
62	11	0	1	500	1
63	11	1	5	180	1
64	11	2	97	20	2
65	11	3	25	3	2
66	12	0	1	400	1
67	12	1	3	50	1
68	12	2	30	10	2
69	12	3	8	5	2
70	13	0	1	400	1
71	13	1	4	50	1
72	13	2	32	10	2
73	13	3	8	5	2
74	14	0	1	150	1
75	14	1	5	50	1
76	14	2	97	5	2
77	15	0	1	100	1
78	15	1	3	20	1
79	15	2	30	3	2
80	16	0	1	100	1
81	16	1	4	20	1
82	16	2	32	3	2
83	17	0	1	400	1
84	17	1	5	150	1
85	17	2	98	15	2
86	18	0	1	300	1
87	18	1	3	40	1
88	18	2	30	7	2
89	19	0	1	300	1
90	19	1	4	40	1
91	19	2	32	7	2
92	20	0	1	300	1
93	20	1	5	100	1
94	20	2	97	10	2
95	21	0	1	200	1
96	21	1	3	30	1
97	21	2	30	5	2
98	22	0	1	200	1
99	22	1	4	30	1
100	22	2	32	5	2
101	23	0	1	600	1
102	23	1	5	230	1
103	23	2	98	25	2
104	23	3	25	5	2
105	24	0	1	500	1
106	24	1	3	60	1
107	24	2	30	14	2
108	24	3	8	10	2
109	25	0	1	500	1
110	25	1	4	60	1
111	25	2	32	14	2
112	25	3	8	10	2
113	26	0	1	800	1
114	26	1	5	800	1
115	26	2	29	16	2
116	26	3	39	200	1
117	26	4	113	315	1
118	26	5	25	12	1
119	26	6	12	280	1
120	26	7	34	12	1
121	26	8	112	110	2
122	26	9	97	50	2
123	26	10	98	270	2
124	27	0	1	800	1
125	27	1	5	300	1
126	27	2	97	35	2
127	27	3	25	8	2
128	28	0	1	600	1
129	28	1	3	80	1
130	28	2	30	18	2
131	28	3	8	15	2
132	29	0	1	600	1
133	29	1	4	80	1
134	29	2	32	18	2
135	29	3	8	15	2
136	30	0	1	3700	1
137	30	1	5	400	1
138	30	2	8	25	2
139	30	3	25	7	2
140	30	4	113	100	1
141	30	5	114	23	2
142	30	6	97	40	2
143	30	7	98	40	2
144	30	8	36	7	2
145	30	9	9	7	2
146	30	10	112	40	2
147	31	0	1	1000	1
148	31	1	5	400	1
149	31	2	97	40	2
150	31	3	25	10	2
151	31	4	112	40	2
152	32	0	1	800	1
153	32	1	3	100	1
154	32	2	30	23	2
155	32	3	8	20	2
156	32	4	9	7	2
157	33	0	1	800	1
158	33	1	4	100	1
159	33	2	32	23	2
160	33	3	8	20	2
161	33	4	9	7	2
